(set-logic QF_S)
(declare-fun var0 () String)
(declare-fun var1 () String)
(declare-fun var2 () String)
(declare-fun var3 () String)
(declare-fun var4 () String)
(declare-fun var5 () String)
(declare-fun var6 () String)
(declare-fun var7 () String)
(declare-fun var8 () String)
(declare-fun var9 () String)
(declare-fun var10 () String)
(declare-fun var11 () String)
(declare-fun var12 () String)
(declare-fun var13 () String)
(declare-fun var14 () String)
(declare-fun var15 () String)
(declare-fun var16 () String)
(declare-fun var17 () String)
(declare-fun var18 () String)
(declare-fun var19 () String)
(declare-fun var20 () String)
(declare-fun var21 () String)
(declare-fun var22 () String)
(declare-fun var23 () String)
(declare-fun var24 () String)
(declare-fun var25 () String)
(declare-fun var26 () String)
(declare-fun var27 () String)
(declare-fun var28 () String)
(declare-fun var29 () String)
(declare-fun var30 () String)
(declare-fun var31 () String)
(declare-fun var32 () String)
(declare-fun var33 () String)
(declare-fun var34 () String)
(declare-fun var35 () String)
(declare-fun var36 () String)
(declare-fun var37 () String)
(declare-fun var38 () String)
(declare-fun var39 () String)
(declare-fun var40 () String)
(declare-fun var41 () String)
(declare-fun var42 () String)
(declare-fun var43 () String)
(declare-fun var44 () String)
(declare-fun var45 () String)
(declare-fun var46 () String)
(declare-fun var47 () String)
(declare-fun var48 () String)
(declare-fun var49 () String)
(declare-fun var50 () String)
(declare-fun var51 () String)
(declare-fun var52 () String)
(declare-fun var53 () String)
(declare-fun var54 () String)
(declare-fun var55 () String)
(declare-fun var56 () String)
(declare-fun var57 () String)
(declare-fun var58 () String)
(declare-fun var59 () String)
(declare-fun var60 () String)
(declare-fun var61 () String)
(declare-fun var62 () String)
(declare-fun var63 () String)
(declare-fun var64 () String)
(declare-fun var65 () String)
(declare-fun var66 () String)
(declare-fun var67 () String)
(declare-fun var68 () String)
(declare-fun var69 () String)
(declare-fun var70 () String)
(declare-fun var71 () String)
(declare-fun var72 () String)
(declare-fun var73 () String)
(declare-fun var74 () String)
(declare-fun var75 () String)
(declare-fun var76 () String)
(declare-fun var77 () String)
(declare-fun var78 () String)
(declare-fun var79 () String)
(declare-fun var80 () String)
(declare-fun var81 () String)
(declare-fun var82 () String)
(declare-fun var83 () String)
(declare-fun var84 () String)
(declare-fun var85 () String)
(declare-fun var86 () String)
(declare-fun var87 () String)
(declare-fun var88 () String)
(declare-fun var89 () String)
(declare-fun var90 () String)
(declare-fun var91 () String)
(declare-fun var92 () String)
(declare-fun var93 () String)
(declare-fun var94 () String)
(declare-fun var95 () String)
(declare-fun var96 () String)
(declare-fun var97 () String)
(declare-fun var98 () String)
(declare-fun var99 () String)
(declare-fun var100 () String)
(declare-fun var101 () String)
(declare-fun var102 () String)
(declare-fun var103 () String)
(declare-fun var104 () String)
(declare-fun var105 () String)
(declare-fun var106 () String)
(declare-fun var107 () String)
(declare-fun var108 () String)
(declare-fun var109 () String)
(declare-fun var110 () String)
(declare-fun var111 () String)
(declare-fun var112 () String)
(declare-fun var113 () String)
(declare-fun var114 () String)
(declare-fun var115 () String)
(declare-fun var116 () String)
(declare-fun var117 () String)
(declare-fun var118 () String)
(declare-fun var119 () String)
(declare-fun var120 () String)
(declare-fun var121 () String)
(declare-fun var122 () String)
(declare-fun var123 () String)
(declare-fun var124 () String)
(declare-fun var125 () String)
(declare-fun var126 () String)
(declare-fun var127 () String)
(declare-fun var128 () String)
(declare-fun var129 () String)
(declare-fun var130 () String)
(declare-fun var131 () String)
(declare-fun var132 () String)
(declare-fun var133 () String)
(declare-fun var134 () String)
(declare-fun var135 () String)
(declare-fun var136 () String)
(declare-fun var137 () String)
(declare-fun var138 () String)
(declare-fun var139 () String)
(assert (= 81 (Length var0)))
(assert (= 7 (Length var1)))
(assert (= 2 (Length var2)))
(assert (= 19 (Length var3)))
(assert (= 88 (Length var4)))
(assert (= 82 (Length var5)))
(assert (= 95 (Length var6)))
(assert (= 6 (Length var7)))
(assert (= 100 (Length var8)))
(assert (= 90 (Length var9)))
(assert (= 61 (Length var10)))
(assert (= 17 (Length var11)))
(assert (= 24 (Length var12)))
(assert (= 55 (Length var13)))
(assert (= 18 (Length var14)))
(assert (= 81 (Length var15)))
(assert (= 5 (Length var16)))
(assert (= 26 (Length var17)))
(assert (= 21 (Length var18)))
(assert (= 71 (Length var19)))
(assert (= 91 (Length var20)))
(assert (= 2 (Length var21)))
(assert (= 26 (Length var22)))
(assert (= 8 (Length var23)))
(assert (= 19 (Length var24)))
(assert (= 68 (Length var25)))
(assert (= 99 (Length var26)))
(assert (= 0 (Length var27)))
(assert (= 25 (Length var28)))
(assert (= 51 (Length var29)))
(assert (= 99 (Length var30)))
(assert (= 81 (Length var31)))
(assert (= 94 (Length var32)))
(assert (= 90 (Length var33)))
(assert (= 70 (Length var34)))
(assert (= 84 (Length var35)))
(assert (= 100 (Length var36)))
(assert (= 92 (Length var37)))
(assert (= 93 (Length var38)))
(assert (= 61 (Length var39)))
(assert (= 88 (Length var40)))
(assert (= 79 (Length var41)))
(assert (= 1 (Length var42)))
(assert (= 91 (Length var43)))
(assert (= 59 (Length var44)))
(assert (= 66 (Length var45)))
(assert (= 51 (Length var46)))
(assert (= 34 (Length var47)))
(assert (= 100 (Length var48)))
(assert (= 2 (Length var49)))
(assert (= 98 (Length var50)))
(assert (= 56 (Length var51)))
(assert (= 90 (Length var52)))
(assert (= 93 (Length var53)))
(assert (= 22 (Length var54)))
(assert (= 62 (Length var55)))
(assert (= 25 (Length var56)))
(assert (= 9 (Length var57)))
(assert (= 24 (Length var58)))
(assert (= 59 (Length var59)))
(assert (= 3 (Length var60)))
(assert (= 41 (Length var61)))
(assert (= 100 (Length var62)))
(assert (= 49 (Length var63)))
(assert (= 15 (Length var64)))
(assert (= 87 (Length var65)))
(assert (= 50 (Length var66)))
(assert (= 23 (Length var67)))
(assert (= 49 (Length var68)))
(assert (= 78 (Length var69)))
(assert (= 93 (Length var70)))
(assert (= 69 (Length var71)))
(assert (= 94 (Length var72)))
(assert (= 54 (Length var73)))
(assert (= 39 (Length var74)))
(assert (= 22 (Length var75)))
(assert (= 52 (Length var76)))
(assert (= 70 (Length var77)))
(assert (= 34 (Length var78)))
(assert (= 83 (Length var79)))
(assert (= 67 (Length var80)))
(assert (= 15 (Length var81)))
(assert (= 100 (Length var82)))
(assert (= 53 (Length var83)))
(assert (= 94 (Length var84)))
(assert (= 93 (Length var85)))
(assert (= 11 (Length var86)))
(assert (= 44 (Length var87)))
(assert (= 81 (Length var88)))
(assert (= 1 (Length var89)))
(assert (= 99 (Length var90)))
(assert (= 69 (Length var91)))
(assert (= 61 (Length var92)))
(assert (= 37 (Length var93)))
(assert (= 93 (Length var94)))
(assert (= 49 (Length var95)))
(assert (= 72 (Length var96)))
(assert (= 56 (Length var97)))
(assert (= 81 (Length var98)))
(assert (= 63 (Length var99)))
(assert (= 45 (Length var100)))
(assert (= 61 (Length var101)))
(assert (= 64 (Length var102)))
(assert (= 64 (Length var103)))
(assert (= 31 (Length var104)))
(assert (= 3 (Length var105)))
(assert (= 46 (Length var106)))
(assert (= 29 (Length var107)))
(assert (= 31 (Length var108)))
(assert (= 39 (Length var109)))
(assert (= 32 (Length var110)))
(assert (= 55 (Length var111)))
(assert (= 55 (Length var112)))
(assert (= 35 (Length var113)))
(assert (= 36 (Length var114)))
(assert (= 16 (Length var115)))
(assert (= 3 (Length var116)))
(assert (= 30 (Length var117)))
(assert (= 17 (Length var118)))
(assert (= 78 (Length var119)))
(assert (= 63 (Length var120)))
(assert (= 26 (Length var121)))
(assert (= 71 (Length var122)))
(assert (= 70 (Length var123)))
(assert (= 84 (Length var124)))
(assert (= 63 (Length var125)))
(assert (= 63 (Length var126)))
(assert (= 7 (Length var127)))
(assert (= 78 (Length var128)))
(assert (= 84 (Length var129)))
(assert (= 70 (Length var130)))
(assert (= 60 (Length var131)))
(assert (= 5 (Length var132)))
(assert (= 2 (Length var133)))
(assert (= 89 (Length var134)))
(assert (= 92 (Length var135)))
(assert (= 79 (Length var136)))
(assert (= 12 (Length var137)))
(assert (= 87 (Length var138)))
(assert (= 29 (Length var139)))
(assert (= 158 (Length (Concat var19 var138))))
(assert (= 134 (Length (Concat var61 var38))))
(assert (= 101 (Length (Concat var108 var77))))
(assert (= 122 (Length (Concat var36 var54))))
(assert (= 80 (Length (Concat var66 var117))))
(assert (= 91 (Length (Concat var75 var71))))
(assert (= 136 (Length (Concat var37 var87))))
(assert (= 119 (Length (Concat var32 var28))))
(assert (= 162 (Length (Concat var70 var91))))
(assert (= 192 (Length (Concat var53 var26))))
(assert (= 127 (Length (Concat var31 var106))))
(assert (= 93 (Length (Concat var86 var5))))
(assert (= 150 (Length (Concat var65 var99))))
(assert (= 81 (Length (Concat var17 var111))))
(check-sat)